column=7;
row=7;
max=5;
left=[5, 1, 0, 3, 0, 4, 1];
right=[4, 5, 1, 0, 0, 0, 2];
top=[0, 0, 2, 0, 2, 4, 4];
bottom=[1, 4, 5, 0, 3, 2, 0];
Board=[|5,3,2,1,0,0,0|0,1,0,0,0,4,5|0,0,0,0,0,0,1|0,0,4,2,0,0,0|0,2,1,0,5,0,0|4,5,3,0,0,0,0|0,0,0,0,0,0,0|]